Academic license - for non-commercial use only
Gurobi Optimizer version 9.0.3 build v9.0.3rc0 (mac64)
Optimize a model with 104216 rows, 100800 columns and 576950 nonzeros
Model fingerprint: 0x85ff3165
Variable types: 0 continuous, 100800 integer (100800 binary)
Coefficient statistics:
  Matrix range     [1e+00, 1e+00]
  Objective range  [1e+01, 3e+04]
  Bounds range     [1e+00, 1e+00]
  RHS range        [1e+00, 2e+02]
Presolve added 0 rows and 1450 columns
Presolve removed 50 rows and 0 columns
Presolve time: 1.53s
Presolved: 104166 rows, 102250 columns, 431350 nonzeros
Variable types: 0 continuous, 102250 integer (102250 binary)
Found heuristic solution: objective 330879.00000

Concurrent LP optimizer: dual simplex and barrier
Showing barrier log only...

Root barrier log...

Ordering time: 0.27s

Barrier statistics:
 Dense cols : 400
 AA' NZ     : 3.344e+05
 Factor NZ  : 1.300e+06 (roughly 100 MBytes of memory)
 Factor Ops : 3.284e+08 (less than 1 second per iteration)
 Threads    : 3

                  Objective                Residual
Iter       Primal          Dual         Primal    Dual     Compl     Time
   0   7.95514200e+07 -1.07232053e+08  3.26e+02 3.06e+01  8.58e+03     3s
   1   7.12318184e+05 -1.10932415e+08  1.61e+00 1.38e+02  4.01e+02     3s
   2   4.43173784e+05 -5.98650732e+07  4.63e-01 7.41e+01  2.04e+02     3s
   3   3.83552179e+05 -2.57793475e+07  1.90e-01 3.05e+01  8.70e+01     3s
   4   3.41573054e+05 -1.58257570e+05  4.23e-03 3.54e+00  1.63e+00     3s
   5   3.31732457e+05  1.03975980e+05  2.92e-03 1.42e+00  7.42e-01     3s
   6   3.21336004e+05  1.68481885e+05  2.20e-03 9.06e-01  4.98e-01     4s
   7   3.13517911e+05  1.99154033e+05  1.78e-03 6.43e-01  3.72e-01     4s
   8   3.09054949e+05  2.21779397e+05  1.53e-03 1.40e+01  2.83e-01     4s
   9   3.02337772e+05  2.35174966e+05  1.23e-03 1.19e+01  2.18e-01     4s
  10   2.97172332e+05  2.49421168e+05  1.02e-03 6.98e+00  1.55e-01     4s
  11   2.91260474e+05  2.56081419e+05  7.99e-04 4.68e+00  1.14e-01     4s
  12   2.86936337e+05  2.59409043e+05  6.40e-04 3.39e+00  8.94e-02     4s
  13   2.84410929e+05  2.63361808e+05  5.45e-04 2.16e+00  6.83e-02     4s
  14   2.81607121e+05  2.64976012e+05  4.38e-04 1.59e+00  5.40e-02     4s
  15   2.78838681e+05  2.65800171e+05  3.41e-04 1.28e+00  4.23e-02     5s
  16   2.76323845e+05  2.66531948e+05  2.49e-04 1.01e+00  3.18e-02     5s
  17   2.75386528e+05  2.66908974e+05  2.16e-04 8.77e-01  2.75e-02     5s
  18   2.74063668e+05  2.67311025e+05  1.70e-04 7.30e-01  2.19e-02     5s
  19   2.73452335e+05  2.67556129e+05  1.48e-04 6.41e-01  1.91e-02     5s
  20   2.72804807e+05  2.67999875e+05  1.24e-04 4.85e-01  1.56e-02     5s
  21   2.72594605e+05  2.68195074e+05  1.16e-04 4.11e-01  1.43e-02     5s
  22   2.71850867e+05  2.68348266e+05  8.99e-05 3.55e-01  1.14e-02     5s
  23   2.71278332e+05  2.68488542e+05  6.97e-05 3.02e-01  9.06e-03     6s
  24   2.70959433e+05  2.68604166e+05  5.82e-05 2.60e-01  7.65e-03     6s
  25   2.70640164e+05  2.68690409e+05  4.67e-05 2.28e-01  6.33e-03     6s
  26   2.70397815e+05  2.68784698e+05  3.79e-05 1.93e-01  5.24e-03     6s
  27   2.70146825e+05  2.68845137e+05  2.89e-05 1.70e-01  4.23e-03     6s
  28   2.70059537e+05  2.68911435e+05  2.58e-05 1.47e-01  3.73e-03     6s
  29   2.69953225e+05  2.68973749e+05  2.20e-05 1.24e-01  3.18e-03     6s
  30   2.69888966e+05  2.69019744e+05  1.97e-05 1.08e-01  2.82e-03     6s
  31   2.69764264e+05  2.69048075e+05  1.53e-05 9.71e-02  2.33e-03     6s
  32   2.69702402e+05  2.69078263e+05  1.31e-05 8.62e-02  2.03e-03     6s
  33   2.69630029e+05  2.69108643e+05  1.06e-05 7.52e-02  1.69e-03     7s
  34   2.69594926e+05  2.69141038e+05  9.34e-06 6.35e-02  1.47e-03     7s
  35   2.69548623e+05  2.69168518e+05  7.72e-06 5.35e-02  1.23e-03     7s
  36   2.69507665e+05  2.69202289e+05  6.28e-06 4.16e-02  9.92e-04     7s
  37   2.69483758e+05  2.69218389e+05  5.47e-06 3.61e-02  8.62e-04     7s
  38   2.69448706e+05  2.69232204e+05  4.27e-06 3.16e-02  7.03e-04     7s
  39   2.69430549e+05  2.69248581e+05  3.66e-06 2.60e-02  5.91e-04     7s
  40   2.69423554e+05  2.69255563e+05  3.43e-06 2.34e-02  5.46e-04     7s
  41   2.69404291e+05  2.69261248e+05  2.79e-06 2.12e-02  4.65e-04     7s
  42   2.69402771e+05  2.69264893e+05  2.74e-06 1.98e-02  4.48e-04     7s
  43   2.69387269e+05  2.69273750e+05  2.22e-06 1.64e-02  3.69e-04     8s
  44   2.69374527e+05  2.69284077e+05  1.80e-06 1.26e-02  2.94e-04     8s
  45   2.69366144e+05  2.69291588e+05  1.52e-06 9.79e-03  2.42e-04     8s
  46   2.69355872e+05  2.69297203e+05  1.18e-06 7.74e-03  1.91e-04     8s
  47   2.69348975e+05  2.69305110e+05  9.53e-07 4.99e-03  1.42e-04     8s
  48   2.69339559e+05  2.69306864e+05  6.54e-07 4.32e-03  1.06e-04     8s
  49   2.69335117e+05  2.69309051e+05  5.11e-07 3.50e-03  8.47e-05     8s
  50   2.69331659e+05  2.69310296e+05  3.99e-07 3.04e-03  6.94e-05     8s
  51   2.69328453e+05  2.69313412e+05  2.97e-07 1.93e-03  4.89e-05     9s
  52   2.69323522e+05  2.69315430e+05  1.44e-07 1.20e-03  2.63e-05     9s
  53   2.69323075e+05  2.69316277e+05  1.31e-07 9.00e-04  2.21e-05     9s
  54   2.69321432e+05  2.69316579e+05  7.81e-08 7.95e-04  1.58e-05     9s
  55   2.69320350e+05  2.69317257e+05  4.45e-08 5.49e-04  1.01e-05     9s
  56   2.69319506e+05  2.69318522e+05  1.95e-08 1.00e-04  3.20e-06     9s
  57   2.69318862e+05  2.69318844e+05  3.37e-10 1.09e-06  5.80e-08     9s
  58   2.69318847e+05  2.69318847e+05  8.12e-12 3.26e-08  1.82e-11     9s

Barrier solved model in 58 iterations and 9.15 seconds
Optimal objective 2.69318847e+05


Root crossover log...

   60923 DPushes remaining with DInf 0.0000000e+00                 9s
       0 DPushes remaining with DInf 0.0000000e+00                 9s

     454 PPushes remaining with PInf 0.0000000e+00                 9s
       0 PPushes remaining with PInf 0.0000000e+00                 9s

  Push phase complete: Pinf 0.0000000e+00, Dinf 2.3685942e-11      9s


Root simplex log...

Iteration    Objective       Primal Inf.    Dual Inf.      Time
    6591    2.6931885e+05   0.000000e+00   0.000000e+00      9s

Solved with barrier

Root relaxation: objective 2.693188e+05, 6591 iterations, 7.33 seconds
Total elapsed time = 10.07s

    Nodes    |    Current Node    |     Objective Bounds      |     Work
 Expl Unexpl |  Obj  Depth IntInf | Incumbent    BestBd   Gap | It/Node Time

     0     0 269318.847    0 4426 330879.000 269318.847  18.6%     -   10s
H    0     0                    270941.00000 269318.847  0.60%     -   11s
H    0     0                    270688.00000 269318.847  0.51%     -   21s
     0     0 269328.240    0 4445 270688.000 269328.240  0.50%     -   25s
     0     0 269328.496    0 4447 270688.000 269328.496  0.50%     -   27s
     0     0 269328.510    0 4446 270688.000 269328.510  0.50%     -   27s
     0     0 269333.466    0 4542 270688.000 269333.466  0.50%     -   30s
     0     0 269333.592    0 4436 270688.000 269333.592  0.50%     -   31s
     0     0 269333.649    0 4550 270688.000 269333.649  0.50%     -   31s
     0     0 269333.649    0 4551 270688.000 269333.649  0.50%     -   31s
     0     0 269338.702    0 4555 270688.000 269338.702  0.50%     -   34s
     0     0 269339.105    0 4559 270688.000 269339.105  0.50%     -   35s
     0     0 269339.128    0 4568 270688.000 269339.128  0.50%     -   36s
     0     0 269343.913    0 4448 270688.000 269343.913  0.50%     -   38s
     0     0 269344.735    0 4462 270688.000 269344.735  0.50%     -   39s
     0     0 269345.381    0 4450 270688.000 269345.381  0.50%     -   40s
     0     0 269345.382    0 4468 270688.000 269345.382  0.50%     -   40s
     0     0 269350.637    0 4469 270688.000 269350.637  0.49%     -   42s
     0     0 269351.504    0 4460 270688.000 269351.504  0.49%     -   43s
     0     0 269351.533    0 4464 270688.000 269351.533  0.49%     -   43s
     0     0 269355.225    0 4557 270688.000 269355.225  0.49%     -   46s
     0     0 269355.303    0 4550 270688.000 269355.303  0.49%     -   47s
     0     0 269355.311    0 4552 270688.000 269355.311  0.49%     -   47s
     0     0 269358.745    0 4463 270688.000 269358.745  0.49%     -   49s
     0     0 269359.519    0 4509 270688.000 269359.519  0.49%     -   50s
     0     0 269359.619    0 4450 270688.000 269359.619  0.49%     -   50s
     0     0 269359.628    0 4503 270688.000 269359.628  0.49%     -   51s
     0     0 269363.760    0 4564 270688.000 269363.760  0.49%     -   53s
     0     0 269363.996    0 4570 270688.000 269363.996  0.49%     -   54s
     0     0 269364.014    0 4569 270688.000 269364.014  0.49%     -   54s
     0     0 269366.966    0 4530 270688.000 269366.966  0.49%     -   57s
     0     0 269367.251    0 4536 270688.000 269367.251  0.49%     -   58s
     0     0 269367.251    0 4539 270688.000 269367.251  0.49%     -   58s
     0     0 269369.529    0 4586 270688.000 269369.529  0.49%     -   61s
     0     0 269369.609    0 4592 270688.000 269369.609  0.49%     -   62s
     0     0 269369.723    0 4590 270688.000 269369.723  0.49%     -   63s
     0     0 269369.724    0 4593 270688.000 269369.724  0.49%     -   63s
     0     0 269372.400    0 4584 270688.000 269372.400  0.49%     -   65s
     0     0 269372.754    0 4731 270688.000 269372.754  0.49%     -   66s
     0     0 269372.812    0 4742 270688.000 269372.812  0.49%     -   67s
     0     0 269372.844    0 4749 270688.000 269372.844  0.49%     -   67s
     0     0 269374.684    0 4758 270688.000 269374.684  0.49%     -   70s
     0     0 269374.798    0 4624 270688.000 269374.798  0.49%     -   71s
     0     0 269374.813    0 4626 270688.000 269374.813  0.49%     -   71s
     0     0 269375.864    0 4760 270688.000 269375.864  0.48%     -   73s
     0     0 269375.954    0 4755 270688.000 269375.954  0.48%     -   75s
     0     0 269375.970    0 4766 270688.000 269375.970  0.48%     -   75s
     0     0 269378.782    0 4767 270688.000 269378.782  0.48%     -   78s
H    0     0                    269617.00000 269378.782  0.09%     -  111s
     0     0 269378.918    0 4769 269617.000 269378.918  0.09%     -  111s
     0     0 269378.990    0 4758 269617.000 269378.990  0.09%     -  112s
     0     0 269379.005    0 4766 269617.000 269379.005  0.09%     -  112s
     0     0 269381.006    0 4686 269617.000 269381.006  0.09%     -  115s
     0     0 269381.006    0 4317 269617.000 269381.006  0.09%     -  127s
     0     0 269381.006    0 4407 269617.000 269381.006  0.09%     -  135s
     0     0 269381.638    0 4573 269617.000 269381.638  0.09%     -  140s
     0     0 269381.860    0 4581 269617.000 269381.860  0.09%     -  141s
     0     0 269384.017    0 4619 269617.000 269384.017  0.09%     -  146s
     0     0 269384.174    0 4630 269617.000 269384.174  0.09%     -  152s
     0     0 269384.203    0 4626 269617.000 269384.203  0.09%     -  152s
     0     0 269384.939    0 4635 269617.000 269384.939  0.09%     -  155s
     0     0 269385.086    0 4641 269617.000 269385.086  0.09%     -  156s
     0     0 269414.341    0 4643 269617.000 269414.341  0.08%     -  156s
     0     0 269414.341    0 4628 269617.000 269414.341  0.08%     -  160s
     0     0 269414.341    0 4631 269617.000 269414.341  0.08%     -  160s
     0     0 269414.701    0 4652 269617.000 269414.701  0.08%     -  162s
     0     0 269414.701    0 4649 269617.000 269414.701  0.08%     -  165s
H    0     0                    269591.00000 269414.701  0.07%     -  171s
H    0     0                    269588.00000 269414.701  0.06%     -  179s
H    0     2                    269572.00000 269414.701  0.06%     -  202s
     0     2 269414.701    0 4644 269572.000 269414.701  0.06%     -  202s
     1     4 269414.701    1 4244 269572.000 269414.701  0.06%  2105  209s
     3     6 269418.400    2 4201 269572.000 269414.701  0.06%  3680  212s
    11    10 269420.410    4 4201 269572.000 269419.990  0.06%  1719  215s
    41    41 269428.295    8 4195 269572.000 269419.990  0.06%   776  220s
    80    58 269442.790   13 4132 269572.000 269419.990  0.06%   540  225s
   124   108 269452.305   24 4188 269572.000 269419.990  0.06%   497  231s
   180   155 269455.572   31 4370 269572.000 269419.990  0.06%   418  236s
   220   169 269458.348   34 4332 269572.000 269419.990  0.06%   413  243s
   260   204 269476.974   36 4362 269572.000 269419.990  0.06%   443  246s
   305   281 269490.282   38 4411 269572.000 269419.990  0.06%   432  252s
   400   356 269519.899   55 4152 269572.000 269419.990  0.06%   370  256s
   487   393 269542.430   68 4214 269572.000 269419.990  0.06%   360  262s
   564   418     cutoff   93      269572.000 269430.471  0.05%   349  268s
   587   447 269531.263   37 3615 269572.000 269436.231  0.05%   360  272s
   643   465 269527.830   39 3608 269572.000 269436.231  0.05%   360  277s
   705   473 269569.346   61 4017 269572.000 269442.561  0.05%   355  285s
   739   487     cutoff   40      269572.000 269443.720  0.05%   364  290s
   768   538 269549.518   18 3178 269572.000 269445.561  0.05%   385  296s
   850   569 269566.597   17 3628 269572.000 269446.210  0.05%   376  300s

Cutting planes:
  Gomory: 1
  Cover: 1
  Zero half: 223

Explored 895 nodes (370346 simplex iterations) in 300.08 seconds
Thread count was 8 (of 8 available processors)

Solution count 7: 269572 269588 269591 ... 330879

Time limit reached
Best objective 2.695720000000e+05, best bound 2.694462096774e+05, gap 0.0467%

User-callback calls 61454, time in user-callback 0.32 sec
Solution written to /Users/mdeboute/Desktop/Etudes/Master/M2/S9/GOPP/Projet/multi-period-flp/solution/instMulti_I50_J250_T8_1_result.txt
